107
0 46 10 32 50 11 31 38 90 41 
94 72 45 101 48 30 12 43 79 76 
91 4 20 42 62 55 49 28 35 22 
25 18 54 82 95 57 86 98 1 29 
80 13 7 83 53 71 2 27 34 3 
75 96 92 93 64 33 6 70 59 66 
21 52 14 106 88 89 63 85 103 69 
81 61 47 84 60 5 104 68 44 16 
56 65 8 40 19 87 17 102 73 15 
97 24 58 39 99 74 23 105 36 77 
78 9 67 51 37 100 26 
